unsat
(:max-memory         18.52
 :memory             18.43
 :nlsat-arith-var    3
 :nlsat-atoms        13
 :nlsat-bool-var     2
 :nlsat-clauses      10
 :nlsat-conflicts    3
 :nlsat-propagations 9
 :nlsat-stages       3
 :num-allocs         59358
 :rlimit-count       4206
 :time               0.00
 :total-time         0.02)
